*<meta creator='lp_solve v5.5'>
*<meta rows=66>
*<meta columns=36>
*<meta equalities=18>
*<meta integers=0>
*<meta origsense='MIN'>
*
NAME                  
ROWS
 N  R0      
 L  ORCONS[0
 E  MLCONS[2
 E  MLCONS[1
 E  MLCONS[2
 L  ORCONS[2
 E  MLCONS[1
 L  ORCONS[2
 L  MLFLW_CN
 E  MLCONS[0
 E  MLCONS[0
 L  ORCONS[0
 L  MLFLW_CN
 L  ORCONS[1
 E  MLCONS[2
 L  ORCONS[0
 L  MLFLW_CN
 L  MLFLW_CN
 L  ORCONS[2
 E  MLCONS[0
 L  ORCONS[1
 L  MLFLW_CN
 E  MLCONS[1
 L  ORCONS[1
 L  MLFLW_CN
 E  MLCONS[0
 E  MLCONS[1
 E  MLCONS[2
 L  ORCONS[2
 L  MLFLW_CN
 L  MLFLW_CN
 L  ORCONS[2
 E  MLCONS[1
 E  MLCONS[0
 E  MLCONS[0
 L  ORCONS[0
 L  ORCONS[1
 L  ORCONS[0
 E  MLCONS[2
 L  MLFLW_CN
 E  MLCONS[2
 L  MLFLW_CN
 L  ORCONS[2
 L  MLFLW_CN
 L  MLFLW_CN
 E  MLCONS[1
 L  ORCONS[1
 L  ORCONS[0
 L  ORCONS[1
 L  MLFLW_CA
 L  MLFLW_CA
 L  MLFLW_CA
 L  MLFLW_CA
 L  MLFLW_CA
 L  MLFLW_CA
 L  MLFLW_CA
 L  MLFLW_CA
 L  MLFLW_CA
 L  MLFLW_CA
 L  MLFLW_CA
 L  MLFLW_CA
 L  MLFLW_CA
 L  MLFLW_CA
 L  MLFLW_CA
 L  MLFLW_CA
 L  MLFLW_CA
 L  MLFLW_CA
COLUMNS
    f[0][0]   R0        -0.100000000   ORCONS[0  1.0000000000
    f[0][0]   MLFLW_CN  1.0000000000   MLCONS[1  -1.000000000
    f[0][0]   MLCONS[0  1.0000000000   MLFLW_CA  1.0000000000
    f[0][1]   R0        -0.100000000   MLCONS[0  1.0000000000
    f[0][1]   MLCONS[1  -1.000000000   ORCONS[0  1.0000000000
    f[0][1]   MLFLW_CN  1.0000000000   MLFLW_CA  1.0000000000
    f[0][2]   R0        -0.100000000   MLCONS[1  -1.000000000
    f[0][2]   ORCONS[0  1.0000000000   MLFLW_CN  1.0000000000
    f[0][2]   MLCONS[0  1.0000000000   MLFLW_CA  1.0000000000
    f[0][3]   R0        -0.100000000   ORCONS[0  1.0000000000
    f[0][3]   MLFLW_CN  1.0000000000   MLCONS[0  1.0000000000
    f[0][3]   MLCONS[1  -1.000000000   MLFLW_CA  1.0000000000
    f[0][4]   R0        -0.100000000   MLCONS[1  -1.000000000
    f[0][4]   MLFLW_CN  1.0000000000   MLCONS[0  1.0000000000
    f[0][4]   ORCONS[0  1.0000000000   MLFLW_CA  1.0000000000
    f[0][5]   R0        -0.100000000   MLFLW_CN  1.0000000000
    f[0][5]   MLCONS[2  -1.000000000   MLCONS[1  1.0000000000
    f[0][5]   ORCONS[1  1.0000000000   MLFLW_CA  1.0000000000
    f[1][0]   R0        -0.100000000   MLCONS[2  -1.000000000
    f[1][0]   MLCONS[1  1.0000000000   ORCONS[1  1.0000000000
    f[1][0]   MLFLW_CN  1.0000000000   MLFLW_CA  1.0000000000
    f[1][1]   R0        -0.100000000   MLCONS[1  1.0000000000
    f[1][1]   MLCONS[2  -1.000000000   MLFLW_CN  1.0000000000
    f[1][1]   ORCONS[1  1.0000000000   MLFLW_CA  1.0000000000
    f[1][2]   R0        -0.100000000   MLCONS[1  1.0000000000
    f[1][2]   MLCONS[2  -1.000000000   MLFLW_CN  1.0000000000
    f[1][2]   ORCONS[1  1.0000000000   MLFLW_CA  1.0000000000
    f[1][3]   R0        -0.100000000   MLCONS[2  -1.000000000
    f[1][3]   MLCONS[1  1.0000000000   ORCONS[1  1.0000000000
    f[1][3]   MLFLW_CN  1.0000000000   MLFLW_CA  1.0000000000
    f[1][4]   R0        -0.100000000   MLCONS[2  -1.000000000
    f[1][4]   MLCONS[1  1.0000000000   MLFLW_CN  1.0000000000
    f[1][4]   ORCONS[1  1.0000000000   MLFLW_CA  1.0000000000
    f[1][5]   R0        -0.100000000   ORCONS[2  1.0000000000
    f[1][5]   MLCONS[2  1.0000000000   MLFLW_CA  1.0000000000
    f[2][0]   R0        -0.100000000   ORCONS[2  1.0000000000
    f[2][0]   MLCONS[2  1.0000000000   MLFLW_CA  1.0000000000
    f[2][1]   R0        -0.100000000   ORCONS[2  1.0000000000
    f[2][1]   MLCONS[2  1.0000000000   MLFLW_CA  1.0000000000
    f[2][2]   R0        -0.100000000   MLCONS[2  1.0000000000
    f[2][2]   ORCONS[2  1.0000000000   MLFLW_CA  1.0000000000
    f[2][3]   R0        -0.100000000   MLCONS[2  1.0000000000
    f[2][3]   ORCONS[2  1.0000000000   MLFLW_CA  1.0000000000
    f[2][4]   R0        -0.100000000   MLCONS[2  1.0000000000
    f[2][4]   ORCONS[2  1.0000000000   MLFLW_CA  1.0000000000
    f[2][5]   R0        1.0000000000   ORCONS[0  -1.372402492
    f[2][5]   MLCONS[0  1.0000000000   MLCONS[0  -1.000000000
    n[0][1]   R0        1.0000000000   MLCONS[0  -1.000000000
    n[0][1]   MLCONS[0  1.0000000000   ORCONS[0  -1.372402492
    n[0][2]   R0        1.0000000000   MLCONS[0  1.0000000000
    n[0][2]   ORCONS[0  -1.372402492   MLCONS[0  -1.000000000
    n[0][3]   R0        1.0000000000   ORCONS[0  -1.372402492
    n[0][3]   MLCONS[0  -1.000000000   MLCONS[0  1.0000000000
    n[0][4]   R0        1.0000000000   MLCONS[0  1.0000000000
    n[0][4]   MLCONS[0  -1.000000000   ORCONS[0  -1.372402492
    n[0][5]   R0        1.0000000000   MLCONS[0  1.0000000000
    n[0][6]   R0        1.0000000000   MLFLW_CN  0.2010473742
    n[0][6]   MLCONS[1  -1.000000000   ORCONS[1  -1.372402492
    n[0][6]   MLCONS[1  1.0000000000
    n[1][1]   R0        1.0000000000   MLCONS[1  1.0000000000
    n[1][1]   MLCONS[1  -1.000000000   MLFLW_CN  0.2010473742
    n[1][1]   ORCONS[1  -1.372402492
    n[1][2]   R0        1.0000000000   MLCONS[1  -1.000000000
    n[1][2]   MLFLW_CN  0.2010473742   ORCONS[1  -1.372402492
    n[1][2]   MLCONS[1  1.0000000000
    n[1][3]   R0        1.0000000000   MLCONS[1  1.0000000000
    n[1][3]   MLFLW_CN  0.2010473742   MLCONS[1  -1.000000000
    n[1][3]   ORCONS[1  -1.372402492
    n[1][4]   R0        1.0000000000   MLCONS[1  -1.000000000
    n[1][4]   ORCONS[1  -1.372402492   MLFLW_CN  0.2010473742
    n[1][4]   MLCONS[1  1.0000000000
    n[1][5]   R0        1.0000000000   MLCONS[1  1.0000000000
    n[1][6]   R0        1.0000000000   ORCONS[2  -1.372402492
    n[1][6]   MLCONS[2  -1.000000000   MLFLW_CN  0.2010473742
    n[1][6]   MLCONS[2  1.0000000000
    n[2][1]   R0        1.0000000000   MLCONS[2  1.0000000000
    n[2][1]   ORCONS[2  -1.372402492   MLCONS[2  -1.000000000
    n[2][1]   MLFLW_CN  0.2010473742
    n[2][2]   R0        1.0000000000   MLCONS[2  -1.000000000
    n[2][2]   ORCONS[2  -1.372402492   MLFLW_CN  0.2010473742
    n[2][2]   MLCONS[2  1.0000000000
    n[2][3]   R0        1.0000000000   MLCONS[2  1.0000000000
    n[2][3]   MLCONS[2  -1.000000000   MLFLW_CN  0.2010473742
    n[2][3]   ORCONS[2  -1.372402492
    n[2][4]   R0        1.0000000000   MLCONS[2  -1.000000000
    n[2][4]   MLFLW_CN  0.2010473742   ORCONS[2  -1.372402492
    n[2][4]   MLCONS[2  1.0000000000
    n[2][5]   R0        1.0000000000   MLCONS[2  1.0000000000
RHS
    RHS       MLCONS[2  0.1390000000   MLCONS[1  0.1390000000
    RHS       MLCONS[2  0.1390000000   MLCONS[1  0.1390000000
    RHS       MLFLW_CN  -0.001232316   MLFLW_CN  -0.001232316
    RHS       MLCONS[2  0.1390000000   MLFLW_CN  -0.001232316
    RHS       MLFLW_CN  -0.001232316   MLFLW_CN  -0.001232316
    RHS       MLCONS[1  0.1390000000   MLFLW_CN  -0.001232316
    RHS       MLCONS[1  0.1390000000   MLCONS[2  0.1390000000
    RHS       MLFLW_CN  -0.001232316   MLFLW_CN  -0.001232316
    RHS       MLCONS[1  0.1390000000   MLCONS[2  0.1390000000
    RHS       MLFLW_CN  -0.001232316   MLCONS[2  0.1390000000
    RHS       MLFLW_CN  -0.001232316   MLFLW_CN  -0.001232316
    RHS       MLFLW_CN  -0.001232316   MLCONS[1  0.1390000000
    RHS       MLFLW_CA  2.5904340000   MLFLW_CA  2.5904340000
    RHS       MLFLW_CA  2.5904340000   MLFLW_CA  2.5904340000
    RHS       MLFLW_CA  2.5904340000   MLFLW_CA  2.5904340000
    RHS       MLFLW_CA  2.5904340000   MLFLW_CA  2.5904340000
    RHS       MLFLW_CA  2.5904340000   MLFLW_CA  2.5904340000
    RHS       MLFLW_CA  2.5904340000   MLFLW_CA  2.5904340000
    RHS       MLFLW_CA  2.5904340000   MLFLW_CA  2.5904340000
    RHS       MLFLW_CA  2.5904340000   MLFLW_CA  2.5904340000
    RHS       MLFLW_CA  2.5904340000   MLFLW_CA  2.5904340000
ENDATA
